Route 1: 0 19 22 42 51 12 24 25 57 0
Route 2: 0 98 91 67 47 83 43 30 94 53 72 0
Route 3: 0 27 13 56 90 65 64 37 34 0
Route 4: 0 36 96 50 15 20 23 6 7 82 0
Route 5: 0 97 100 55 73 44 86 68 95 48 10 38 0
Route 6: 0 92 69 99 4 81 5 39 76 0
Route 7: 0 2 41 77 71 31 46 45 0
Route 8: 0 16 79 78 9 52 87 0
Route 9: 0 26 40 66 29 93 3 88 89 59 84 54 0
Route 10: 0 18 75 85 33 60 80 63 14 32 35 0
Route 11: 0 74 1 62 58 17 28 8 11 21 70 61 0
Route 12: 0 49 0
